
se = 80; % nombre de sessions
gr = 40; % nombre de grups de treball
cl = 12; % nombre de slots
minPapersPerSlot = 3; % minim nombre d'articles per sessio i slot
maxSesionsPar = 20; % maxim nombre de sessions paraleles

npMax = [3, 6, 4, 6, 4, 5, 6, 4, 3, 5, 3, 3]; % nombre maxim de papers per slot

np = [10, 14, 14, 7, 14, 5, 3, 5, 18, 3, 8, 14, 3, 3, 15, 17, 6, 14, 3, 6, 10, 11, 12, 12, 13, 8, 5, 4, 7, 7, 5, 14, 10, 16, 3, 5, 13, 3, 11, 10, 3, 9, 6, 7, 9, 13, 8, 9, 6, 13, 4, 15, 13, 18, 3, 11, 3, 5, 10, 9, 3, 14, 7, 7, 12, 4, 3, 6, 16, 16, 3, 15, 7, 19, 6, 7, 17, 14, 3, 14]; % nombre de papers acceptats a cada sessio

WG = [ {1}, {2}, {3}, {4,5}, {6}, {7,8,9}, {10}, {11}, {12,13}, {14,15,16}, {}, {17}, {18,19}, {20}, {21}, {22}, {23}, {}, {}, {}, {24}, {25}, {26}, {27}, {28}, {}, {29,30}, {31}, {32}, {}, {33}, {}, {}, {34,35}, {36}, {37}, {38,39,40}, {1}, {}, {2}, {3}, {}, {}, {4,5,6}, {7}, {}, {8,9,10}, {11}, {12}, {13}, {}, {}, {14,15,16}, {}, {}, {}, {17}, {}, {18}, {19}, {}, {20}, {21}, {}, {22}, {23}, {24,25,26}, {27,28,29}, {}, {30}, {31,32}, {33}, {34}, {}, {}, {35}, {36,37}, {}, {38}, {39} ]; % grups per sessio

